logs/2026_03_23_17_43_44_set_ds_1_ds_1_s010_g004_max.log
[2026-03-23T17:43:45.179Z] Pipeline "set_ds_1_ds_1_s010_g004" → 2026_03_23_17_43_44_set_ds_1_ds_1_s010_g004_max.sol
Set parameter WLSAccessID
Set parameter WLSSecret
Set parameter LicenseID to value 2792458
Set parameter LogFile to value "gurobi.log"
Using license file /root/gurobi.lic
Academic license 2792458 - for non-commercial use only - registered to an___@studenti.unipg.it

Gurobi Optimizer version 13.0.1 build v13.0.1rc0 (linux64 - "Ubuntu 24.04.4 LTS")
Copyright (c) 2026, Gurobi Optimization, LLC

Warning: Duplicate section found (read 'binary') - Is a variable name equal to an LP file format keyword?
Warning: Duplicate section found (read 'binary') - Is a variable name equal to an LP file format keyword?
Warning: Duplicate section found (read 'binary') - Is a variable name equal to an LP file format keyword?
Warning: Duplicate section found (read 'binary') - Is a variable name equal to an LP file format keyword?
Warning: Duplicate section found (read 'binary') - Is a variable name equal to an LP file format keyword?
Warning: Duplicate section found (read 'binary') - Is a variable name equal to an LP file format keyword?
Warning: Duplicate section found (read 'binary') - Is a variable name equal to an LP file format keyword?
Warning: Duplicate section found (read 'binary') - Is a variable name equal to an LP file format keyword?
Warning: Duplicate section found (read 'binary') - Is a variable name equal to an LP file format keyword?
Warning: Duplicate section found (read 'binary') - Is a variable name equal to an LP file format keyword?
Warning: Further warnings of this type will be omitted.
Read LP format model from file /root/bgw/data/uploads/2026_03_23_17_43_44_set_ds_1_ds_1_s010_g004_max.lp
Reading time = 0.01 seconds
: 2589 rows, 275 columns, 7874 nonzeros

Using Gurobi shared library /opt/gurobi1301/linux64/lib/libgurobi.so.13.0.1

CPU model: AMD EPYC-Genoa Processor, instruction set [SSE2|AVX|AVX2|AVX512]
Thread count: 16 physical cores, 16 logical processors, using up to 16 threads

Academic license 2792458 - for non-commercial use only - registered to an___@studenti.unipg.it
Optimize a model with 2589 rows, 275 columns and 7874 nonzeros (Max)
Model fingerprint: 0xa48e1ffc
Model has 17 linear objective coefficients
Variable types: 37 continuous, 238 integer (238 binary)
Coefficient statistics:
  Matrix range     [1e+00, 2e+01]
  Objective range  [1e+00, 1e+00]
  Bounds range     [1e+00, 1e+00]
  RHS range        [1e+00, 2e+01]

Found heuristic solution: objective 17.0000000
Presolve removed 276 rows and 65 columns
Presolve time: 0.02s
Presolved: 2313 rows, 210 columns, 7058 nonzeros
Variable types: 0 continuous, 210 integer (203 binary)
Found heuristic solution: objective 31.0000000

Root relaxation: objective 9.000000e+01, 119 iterations, 0.01 seconds (0.01 work units)

    Nodes    |    Current Node    |     Objective Bounds      |     Work
 Expl Unexpl |  Obj  Depth IntInf | Incumbent    BestBd   Gap | It/Node Time

     0     0   90.00000    0   26   31.00000   90.00000   190%     -    0s
H    0     0                      39.0000000   90.00000   131%     -    0s
H    0     0                      47.0000000   90.00000  91.5%     -    0s
     0     0   90.00000    0   24   47.00000   90.00000  91.5%     -    0s
     0     0   90.00000    0   26   47.00000   90.00000  91.5%     -    0s
     0     0   90.00000    0   25   47.00000   90.00000  91.5%     -    0s
     0     0   90.00000    0   25   47.00000   90.00000  91.5%     -    0s
     0     0   90.00000    0   24   47.00000   90.00000  91.5%     -    0s
     0     0   90.00000    0   16   47.00000   90.00000  91.5%     -    0s
     0     0   90.00000    0   17   47.00000   90.00000  91.5%     -    0s
     0     0   90.00000    0   26   47.00000   90.00000  91.5%     -    0s
     0     0   90.00000    0   26   47.00000   90.00000  91.5%     -    0s
     0     0   89.61111    0   27   47.00000   89.61111  90.7%     -    0s
     0     0   89.61111    0   26   47.00000   89.61111  90.7%     -    0s
     0     0   89.00000    0   28   47.00000   89.00000  89.4%     -    0s
     0     0   89.00000    0   24   47.00000   89.00000  89.4%     -    0s
     0     0   88.90278    0   25   47.00000   88.90278  89.2%     -    0s
     0     0   88.90278    0   25   47.00000   88.90278  89.2%     -    0s
     0     0   88.55556    0   25   47.00000   88.55556  88.4%     -    0s
     0     0   88.55556    0   25   47.00000   88.55556  88.4%     -    0s
     0     2   88.55556    0   24   47.00000   88.55556  88.4%     -    0s

Cutting planes:
  Cover: 20
  MIR: 2
  StrongCG: 1
  Inf proof: 69

Explored 4746 nodes (282794 simplex iterations) in 1.63 seconds (2.34 work units)
Thread count was 16 (of 16 available processors)

Solution count 4: 47 39 31 17 

Optimal solution found (tolerance 1.00e-04)
Best objective 4.700000000000e+01, best bound 4.700000000000e+01, gap 0.0000%

Wrote result file '/root/bgw/data/results/2026_03_23_17_43_44_set_ds_1_ds_1_s010_g004_max.sol'

